(declare-fun or.cond_18_57 () (_ BitVec 1))
(declare-fun cmp30.i.i_18_55 () (_ BitVec 1))
(declare-fun spec.select_18_53 () (_ BitVec 1))
(declare-fun src_reg1.sroa.42.0.copyload_18_38 () (_ BitVec 64))
(declare-fun cmp9.i.i_18_51 () (_ BitVec 1))
(declare-fun or.cond31_18_50 () (_ BitVec 1))
(declare-fun src_reg1.sroa.65.0.copyload_18_42 () (_ BitVec 32))
(declare-fun src_reg1.sroa.57.0.copyload_18_41 () (_ BitVec 32))
(declare-fun cmp6.i.i_18_48 () (_ BitVec 1))
(declare-fun tobool.not.i.i.i_18_47 () (_ BitVec 1))
(declare-fun src_reg1.sroa.54.0.copyload_18_40 () (_ BitVec 32))
(declare-fun src_reg1.sroa.50.0.copyload_18_39 () (_ BitVec 32))
(declare-fun and6.i.i.i.i.i_18_45 () (_ BitVec 64))
(declare-fun src_reg1.sroa.13.0.copyload_18_43 () (_ BitVec 64))
(declare-fun src_reg_18_21 () (_ BitVec 64))
(declare-fun src_reg_18_29 () (_ BitVec 32))
(declare-fun src_reg_18_28 () (_ BitVec 32))
(declare-fun src_reg_18_27 () (_ BitVec 32))
(declare-fun src_reg_18_26 () (_ BitVec 32))
(declare-fun src_reg_18_25 () (_ BitVec 64))
(declare-fun src_reg_18_35 () (_ BitVec 8))
(declare-fun src_reg_18_34 () (_ BitVec 32))
(declare-fun src_reg_18_33 () (_ BitVec 32))
(declare-fun src_reg_18_32 () (_ BitVec 32))
(declare-fun src_reg_18_31 () (_ BitVec 32))
(declare-fun src_reg_18_30 () (_ BitVec 32))
(declare-fun src_reg_18_24 () (_ BitVec 64))
(declare-fun src_reg_18_23 () (_ BitVec 64))
(declare-fun src_reg_18_22 () (_ BitVec 64))
(declare-fun src_reg_18_20 () (_ BitVec 64))
(declare-fun src_reg_18_19 () (_ BitVec 32))
(declare-fun src_reg_18_18 () (_ BitVec 32))
(declare-fun dst_reg_18_17 () (_ BitVec 8))
(declare-fun dst_reg_18_16 () (_ BitVec 32))
(declare-fun dst_reg_18_15 () (_ BitVec 32))
(declare-fun dst_reg_18_14 () (_ BitVec 32))
(declare-fun dst_reg_18_13 () (_ BitVec 32))
(declare-fun dst_reg_18_12 () (_ BitVec 32))
(declare-fun dst_reg_18_11 () (_ BitVec 32))
(declare-fun dst_reg_18_10 () (_ BitVec 32))
(declare-fun dst_reg_18_9 () (_ BitVec 32))
(declare-fun dst_reg_18_8 () (_ BitVec 32))
(declare-fun dst_reg_18_7 () (_ BitVec 64))
(declare-fun dst_reg_18_6 () (_ BitVec 64))
(declare-fun dst_reg_18_5 () (_ BitVec 64))
(declare-fun dst_reg_18_4 () (_ BitVec 64))
(declare-fun dst_reg_18_3 () (_ BitVec 64))
(declare-fun dst_reg_18_2 () (_ BitVec 64))
(declare-fun dst_reg_18_1 () (_ BitVec 32))
(declare-fun dst_reg_18_0 () (_ BitVec 32))
(declare-fun src_reg_18_287 () (_ BitVec 8))
(declare-fun src_reg_18_251 () (_ BitVec 8))
(declare-fun src_reg_18_286 () (_ BitVec 32))
(declare-fun src_reg_18_250 () (_ BitVec 32))
(declare-fun src_reg_18_285 () (_ BitVec 32))
(declare-fun src_reg_18_249 () (_ BitVec 32))
(declare-fun src_reg_18_284 () (_ BitVec 32))
(declare-fun src_reg_18_248 () (_ BitVec 32))
(declare-fun src_reg_18_283 () (_ BitVec 32))
(declare-fun src_reg_18_247 () (_ BitVec 32))
(declare-fun src_reg_18_282 () (_ BitVec 32))
(declare-fun src_reg_18_246 () (_ BitVec 32))
(declare-fun src_reg_18_281 () (_ BitVec 32))
(declare-fun src_reg_18_245 () (_ BitVec 32))
(declare-fun src_reg_18_280 () (_ BitVec 32))
(declare-fun src_reg_18_244 () (_ BitVec 32))
(declare-fun src_reg_18_279 () (_ BitVec 32))
(declare-fun src_reg_18_243 () (_ BitVec 32))
(declare-fun src_reg_18_278 () (_ BitVec 32))
(declare-fun src_reg_18_242 () (_ BitVec 32))
(declare-fun src_reg_18_277 () (_ BitVec 64))
(declare-fun src_reg_18_241 () (_ BitVec 64))
(declare-fun src_reg_18_276 () (_ BitVec 64))
(declare-fun src_reg_18_240 () (_ BitVec 64))
(declare-fun src_reg_18_275 () (_ BitVec 64))
(declare-fun src_reg_18_239 () (_ BitVec 64))
(declare-fun src_reg_18_274 () (_ BitVec 64))
(declare-fun src_reg_18_238 () (_ BitVec 64))
(declare-fun src_reg_18_273 () (_ BitVec 64))
(declare-fun src_reg_18_237 () (_ BitVec 64))
(declare-fun src_reg_18_272 () (_ BitVec 64))
(declare-fun src_reg_18_236 () (_ BitVec 64))
(declare-fun src_reg_18_271 () (_ BitVec 32))
(declare-fun src_reg_18_235 () (_ BitVec 32))
(declare-fun src_reg_18_270 () (_ BitVec 32))
(declare-fun src_reg_18_234 () (_ BitVec 32))
(declare-fun dst_reg_18_269 () (_ BitVec 8))
(declare-fun dst_reg_18_233 () (_ BitVec 8))
(declare-fun dst_reg_18_268 () (_ BitVec 32))
(declare-fun dst_reg_18_232 () (_ BitVec 32))
(declare-fun dst_reg_18_267 () (_ BitVec 32))
(declare-fun dst_reg_18_231 () (_ BitVec 32))
(declare-fun dst_reg_18_266 () (_ BitVec 32))
(declare-fun dst_reg_18_230 () (_ BitVec 32))
(declare-fun dst_reg_18_265 () (_ BitVec 32))
(declare-fun dst_reg_18_229 () (_ BitVec 32))
(declare-fun dst_reg_18_264 () (_ BitVec 32))
(declare-fun dst_reg_18_228 () (_ BitVec 32))
(declare-fun dst_reg_18_263 () (_ BitVec 32))
(declare-fun dst_reg_18_227 () (_ BitVec 32))
(declare-fun dst_reg_18_262 () (_ BitVec 32))
(declare-fun dst_reg_18_226 () (_ BitVec 32))
(declare-fun dst_reg_18_261 () (_ BitVec 32))
(declare-fun dst_reg_18_225 () (_ BitVec 32))
(declare-fun dst_reg_18_260 () (_ BitVec 32))
(declare-fun dst_reg_18_224 () (_ BitVec 32))
(declare-fun dst_reg_18_259 () (_ BitVec 64))
(declare-fun dst_reg_18_223 () (_ BitVec 64))
(declare-fun dst_reg_18_258 () (_ BitVec 64))
(declare-fun dst_reg_18_222 () (_ BitVec 64))
(declare-fun dst_reg_18_257 () (_ BitVec 64))
(declare-fun dst_reg_18_221 () (_ BitVec 64))
(declare-fun dst_reg_18_256 () (_ BitVec 64))
(declare-fun dst_reg_18_220 () (_ BitVec 64))
(declare-fun dst_reg_18_255 () (_ BitVec 64))
(declare-fun dst_reg_18_219 () (_ BitVec 64))
(declare-fun dst_reg_18_254 () (_ BitVec 64))
(declare-fun dst_reg_18_218 () (_ BitVec 64))
(declare-fun dst_reg_18_253 () (_ BitVec 32))
(declare-fun dst_reg_18_217 () (_ BitVec 32))
(declare-fun dst_reg_18_252 () (_ BitVec 32))
(declare-fun dst_reg_18_216 () (_ BitVec 32))
(declare-fun dst_reg_18_193 () (_ BitVec 8))
(declare-fun dst_reg_18_192 () (_ BitVec 32))
(declare-fun dst_reg_18_191 () (_ BitVec 32))
(declare-fun dst_reg_18_190 () (_ BitVec 32))
(declare-fun dst_reg_18_189 () (_ BitVec 32))
(declare-fun dst_reg_18_188 () (_ BitVec 32))
(declare-fun dst_reg_18_187 () (_ BitVec 32))
(declare-fun dst_reg_18_186 () (_ BitVec 32))
(declare-fun dst_reg_18_185 () (_ BitVec 32))
(declare-fun dst_reg_18_184 () (_ BitVec 32))
(declare-fun dst_reg_18_183 () (_ BitVec 64))
(declare-fun dst_reg_18_182 () (_ BitVec 64))
(declare-fun .sink.i.i995.i_18_214 () (_ BitVec 64))
(declare-fun dst_reg_18_180 () (_ BitVec 64))
(declare-fun dst_reg_18_179 () (_ BitVec 64))
(declare-fun dst_reg_18_178 () (_ BitVec 64))
(declare-fun dst_reg_18_177 () (_ BitVec 32))
(declare-fun dst_reg_18_176 () (_ BitVec 32))
(declare-fun src_reg_18_211 () (_ BitVec 8))
(declare-fun src_reg_18_210 () (_ BitVec 32))
(declare-fun src_reg_18_209 () (_ BitVec 32))
(declare-fun src_reg_18_208 () (_ BitVec 32))
(declare-fun src_reg_18_207 () (_ BitVec 32))
(declare-fun src_reg_18_206 () (_ BitVec 32))
(declare-fun src_reg_18_205 () (_ BitVec 32))
(declare-fun src_reg_18_204 () (_ BitVec 32))
(declare-fun src_reg_18_203 () (_ BitVec 32))
(declare-fun src_reg_18_202 () (_ BitVec 32))
(declare-fun src_reg_18_201 () (_ BitVec 64))
(declare-fun src_reg_18_200 () (_ BitVec 64))
(declare-fun src_reg_18_199 () (_ BitVec 64))
(declare-fun src_reg_18_198 () (_ BitVec 64))
(declare-fun src_reg_18_197 () (_ BitVec 64))
(declare-fun src_reg_18_196 () (_ BitVec 64))
(declare-fun src_reg_18_195 () (_ BitVec 32))
(declare-fun src_reg_18_194 () (_ BitVec 32))
(declare-fun cmp.i.i588.i_18_79 () (_ BitVec 1))
(declare-fun cmp1.i.i594.i_18_87 () (_ BitVec 1))
(declare-fun or.cond32_18_166 () (_ BitVec 1))
(declare-fun i12.i.i_18_75 () (_ BitVec 64))
(declare-fun i10.i.i_18_74 () (_ BitVec 64))
(declare-fun sext33_18_172 () (_ BitVec 64))
(declare-fun conv8.i.i.i_18_174 () (_ BitVec 64))
(declare-fun or6.i.i.i_18_148 () (_ BitVec 64))
(declare-fun sext_18_168 () (_ BitVec 64))
(declare-fun conv6.i.i.i_18_170 () (_ BitVec 64))
(declare-fun or.i.i608.i_18_144 () (_ BitVec 64))
(declare-fun conv.i.i591.i_18_82 () (_ BitVec 64))
(declare-fun shl.i.i593.i_18_86 () (_ BitVec 64))
(declare-fun sub.i.i592.i_18_84 () (_ BitVec 64))
(declare-fun conv1.i.i_18_80 () (_ BitVec 64))
(declare-fun i.i.i590.i_18_81 () (_ BitVec 32))
(declare-fun dst_reg_18_110 () (_ BitVec 8))
(declare-fun dst_reg_18_109 () (_ BitVec 32))
(declare-fun dst_reg_18_108 () (_ BitVec 32))
(declare-fun dst_reg_18_107 () (_ BitVec 32))
(declare-fun dst_reg_18_106 () (_ BitVec 32))
(declare-fun dst_reg_18_105 () (_ BitVec 32))
(declare-fun dst_reg_18_104 () (_ BitVec 32))
(declare-fun shl8.i.i.i_18_92 () (_ BitVec 32))
(declare-fun dst_reg_18_103 () (_ BitVec 32))
(declare-fun shl5.i.i596.i_18_91 () (_ BitVec 32))
(declare-fun dst_reg_18_102 () (_ BitVec 32))
(declare-fun dst_reg_18_101 () (_ BitVec 32))
(declare-fun dst_reg_18_100 () (_ BitVec 64))
(declare-fun dst_reg_18_99 () (_ BitVec 64))
(declare-fun dst_reg_18_98 () (_ BitVec 64))
(declare-fun dst_reg_18_97 () (_ BitVec 64))
(declare-fun dst_reg_18_96 () (_ BitVec 64))
(declare-fun dst_reg_18_95 () (_ BitVec 64))
(declare-fun dst_reg_18_94 () (_ BitVec 32))
(declare-fun dst_reg_18_93 () (_ BitVec 32))
(declare-fun src_reg_18_128 () (_ BitVec 8))
(declare-fun src_reg_18_127 () (_ BitVec 32))
(declare-fun src_reg_18_126 () (_ BitVec 32))
(declare-fun src_reg_18_125 () (_ BitVec 32))
(declare-fun src_reg_18_124 () (_ BitVec 32))
(declare-fun src_reg_18_123 () (_ BitVec 32))
(declare-fun src_reg_18_122 () (_ BitVec 32))
(declare-fun src_reg_18_121 () (_ BitVec 32))
(declare-fun src_reg_18_120 () (_ BitVec 32))
(declare-fun src_reg_18_119 () (_ BitVec 32))
(declare-fun src_reg_18_118 () (_ BitVec 64))
(declare-fun src_reg_18_117 () (_ BitVec 64))
(declare-fun src_reg_18_116 () (_ BitVec 64))
(declare-fun src_reg_18_115 () (_ BitVec 64))
(declare-fun src_reg_18_114 () (_ BitVec 64))
(declare-fun src_reg_18_113 () (_ BitVec 64))
(declare-fun src_reg_18_112 () (_ BitVec 32))
(declare-fun src_reg_18_111 () (_ BitVec 32))
(declare-fun cmp.i1.i.i.i_18_164 () (_ BitVec 1))
(declare-fun cmp.i.i.i990.i_18_162 () (_ BitVec 1))
(declare-fun conv7.i.i.i_18_149 () (_ BitVec 32))
(declare-fun conv.i9.i.i_18_145 () (_ BitVec 32))
(declare-fun cond36.i.i.i_18_158 () (_ BitVec 32))
(declare-fun conv1.i.i.i_18_160 () (_ BitVec 64))
(declare-fun cond24.i.i.i_18_153 () (_ BitVec 32))
(declare-fun conv.i.i983.i_18_159 () (_ BitVec 64))
(declare-fun conv29.i.i.i_18_156 () (_ BitVec 32))
(declare-fun i30.i.i.i_18_154 () (_ BitVec 32))
(declare-fun cmp31.i.i.i_18_157 () (_ BitVec 1))
(declare-fun and.i.i.i.i603.i30_18_155 () (_ BitVec 64))
(declare-fun shl.i1.i.i_18_132 () (_ BitVec 64))
(declare-fun shl5.i2.i.i_18_133 () (_ BitVec 64))
(declare-fun conv17.i.i.i_18_151 () (_ BitVec 32))
(declare-fun i29.i.i.i_18_150 () (_ BitVec 32))
(declare-fun cmp19.i.i.i_18_152 () (_ BitVec 1))
(declare-fun and5.i.i.i_18_147 () (_ BitVec 64))
(declare-fun and.i.i607.i_18_143 () (_ BitVec 64))
(declare-fun and6.i.i4.i.i_18_137 () (_ BitVec 64))
(declare-fun and.i.i3.i.i_18_135 () (_ BitVec 64))
(declare-fun sh_prom.i.i.i_18_131 () (_ BitVec 64))
(declare-fun i_18_130 () (_ BitVec 32))
(declare-fun i9.i.i.i_18_90 () (_ BitVec 32))
(declare-fun if.then.i.i993.i_zext_32_to_64.exit.i_18_213 () Bool)
(declare-fun if.else.i.i994.i_zext_32_to_64.exit.i_18_212 () Bool)
(declare-fun dst_reg_18_181 () (_ BitVec 64))
(assert (let ((a!1 (and (= cmp1.i.i594.i_18_87 #b0)
                (and (= cmp.i.i588.i_18_79 #b0) (= or.cond_18_57 #b1))))
      (a!2 (or (and (= cmp1.i.i594.i_18_87 #b1)
                    (and (= cmp.i.i588.i_18_79 #b0) (= or.cond_18_57 #b1)))
               (and (= cmp.i.i588.i_18_79 #b1) (= or.cond_18_57 #b1))))
      (a!7 (=> (and (= cmp.i.i588.i_18_79 #b0) (= or.cond_18_57 #b1))
               (and (= conv1.i.i_18_80
                       ((_ zero_extend 32) src_reg1.sroa.65.0.copyload_18_42))
                    (= dst_reg_18_11 i.i.i590.i_18_81)
                    (= conv.i.i591.i_18_82
                       ((_ zero_extend 32) i.i.i590.i_18_81))
                    (= sub.i.i592.i_18_84
                       (bvsub #x000000000000001f conv1.i.i_18_80))
                    (= shl.i.i593.i_18_86
                       (bvshl #x0000000000000001 sub.i.i592.i_18_84))
                    (ite (bvult shl.i.i593.i_18_86 conv.i.i591.i_18_82)
                         (= cmp1.i.i594.i_18_87 #b1)
                         (= cmp1.i.i594.i_18_87 #b0)))))
      (a!9 (=> (= or.cond_18_57 #b1)
               (and (= dst_reg_18_2 i10.i.i_18_74)
                    (= dst_reg_18_3 i12.i.i_18_75)
                    (ite (bvugt src_reg1.sroa.65.0.copyload_18_42 #x0000001f)
                         (= cmp.i.i588.i_18_79 #b1)
                         (= cmp.i.i588.i_18_79 #b0))))))
(let ((a!3 (or (and (= or.cond32_18_166 #b0) (or a!1 a!2))
               (and (= or.cond32_18_166 #b1) (or a!1 a!2))))
      (a!4 (and (=> if.else.i.i994.i_zext_32_to_64.exit.i_18_212
                    (= .sink.i.i995.i_18_214 #x00000000ffffffff))
                (=> if.then.i.i993.i_zext_32_to_64.exit.i_18_213
                    (= .sink.i.i995.i_18_214 conv8.i.i.i_18_174))
                (=> (and (= or.cond32_18_166 #b1) (or a!1 a!2))
                    (and (= src_reg_18_111 src_reg_18_194)
                         (= src_reg_18_112 src_reg_18_195)
                         (= src_reg_18_113 src_reg_18_196)
                         (= src_reg_18_114 src_reg_18_197)
                         (= src_reg_18_115 src_reg_18_198)
                         (= src_reg_18_116 src_reg_18_199)
                         (= src_reg_18_117 src_reg_18_200)
                         (= src_reg_18_118 src_reg_18_201)
                         (= src_reg_18_119 src_reg_18_202)
                         (= src_reg_18_120 src_reg_18_203)
                         (= src_reg_18_121 src_reg_18_204)
                         (= src_reg_18_122 src_reg_18_205)
                         (= src_reg_18_123 src_reg_18_206)
                         (= src_reg_18_124 src_reg_18_207)
                         (= src_reg_18_125 src_reg_18_208)
                         (= src_reg_18_126 src_reg_18_209)
                         (= src_reg_18_127 src_reg_18_210)
                         (= src_reg_18_128 src_reg_18_211)
                         (= dst_reg_18_93 dst_reg_18_176)
                         (= dst_reg_18_94 dst_reg_18_177)
                         (= and.i.i3.i.i_18_135 dst_reg_18_178)
                         (= and6.i.i4.i.i_18_137 dst_reg_18_179)
                         (= conv6.i.i.i_18_170 dst_reg_18_180)
                         (= #x7fffffffffffffff dst_reg_18_181)
                         (= conv.i.i983.i_18_159 dst_reg_18_182)
                         (= conv1.i.i.i_18_160 dst_reg_18_183)
                         (= conv.i9.i.i_18_145 dst_reg_18_184)
                         (= conv7.i.i.i_18_149 dst_reg_18_185)
                         (= cond24.i.i.i_18_153 dst_reg_18_186)
                         (= cond36.i.i.i_18_158 dst_reg_18_187)
                         (= dst_reg_18_105 dst_reg_18_188)
                         (= dst_reg_18_106 dst_reg_18_189)
                         (= dst_reg_18_107 dst_reg_18_190)
                         (= dst_reg_18_108 dst_reg_18_191)
                         (= dst_reg_18_109 dst_reg_18_192)
                         (= dst_reg_18_110 dst_reg_18_193)))
                (=> (and (= or.cond32_18_166 #b0) (or a!1 a!2))
                    (and (= src_reg_18_111 src_reg_18_194)
                         (= src_reg_18_112 src_reg_18_195)
                         (= src_reg_18_113 src_reg_18_196)
                         (= src_reg_18_114 src_reg_18_197)
                         (= src_reg_18_115 src_reg_18_198)
                         (= src_reg_18_116 src_reg_18_199)
                         (= src_reg_18_117 src_reg_18_200)
                         (= src_reg_18_118 src_reg_18_201)
                         (= src_reg_18_119 src_reg_18_202)
                         (= src_reg_18_120 src_reg_18_203)
                         (= src_reg_18_121 src_reg_18_204)
                         (= src_reg_18_122 src_reg_18_205)
                         (= src_reg_18_123 src_reg_18_206)
                         (= src_reg_18_124 src_reg_18_207)
                         (= src_reg_18_125 src_reg_18_208)
                         (= src_reg_18_126 src_reg_18_209)
                         (= src_reg_18_127 src_reg_18_210)
                         (= src_reg_18_128 src_reg_18_211)
                         (= dst_reg_18_93 dst_reg_18_176)
                         (= dst_reg_18_94 dst_reg_18_177)
                         (= and.i.i3.i.i_18_135 dst_reg_18_178)
                         (= and6.i.i4.i.i_18_137 dst_reg_18_179)
                         (= #x0000000000000000 dst_reg_18_180)
                         (= #x7fffffffffffffff dst_reg_18_181)
                         (= conv.i.i983.i_18_159 dst_reg_18_182)
                         (= conv1.i.i.i_18_160 dst_reg_18_183)
                         (= conv.i9.i.i_18_145 dst_reg_18_184)
                         (= conv7.i.i.i_18_149 dst_reg_18_185)
                         (= cond24.i.i.i_18_153 dst_reg_18_186)
                         (= cond36.i.i.i_18_158 dst_reg_18_187)
                         (= dst_reg_18_105 dst_reg_18_188)
                         (= dst_reg_18_106 dst_reg_18_189)
                         (= dst_reg_18_107 dst_reg_18_190)
                         (= dst_reg_18_108 dst_reg_18_191)
                         (= dst_reg_18_109 dst_reg_18_192)
                         (= dst_reg_18_110 dst_reg_18_193)))
                (= if.else.i.i994.i_zext_32_to_64.exit.i_18_212
                   (and (= or.cond32_18_166 #b0) (or a!1 a!2)))
                (= if.then.i.i993.i_zext_32_to_64.exit.i_18_213
                   (and (= or.cond32_18_166 #b1) (or a!1 a!2)))))
      (a!5 (=> a!1
               (and (= dst_reg_18_10 i9.i.i.i_18_90)
                    (= shl5.i.i596.i_18_91
                       (bvshl i9.i.i.i_18_90 src_reg1.sroa.57.0.copyload_18_41))
                    (= shl8.i.i.i_18_92
                       (bvshl i.i.i590.i_18_81
                              src_reg1.sroa.65.0.copyload_18_42)))))
      (a!6 (and (= i_18_130
                   (bvand src_reg1.sroa.57.0.copyload_18_41 #x000000ff))
                (= sh_prom.i.i.i_18_131 ((_ zero_extend 32) i_18_130))
                (= shl.i1.i.i_18_132 (bvshl i10.i.i_18_74 sh_prom.i.i.i_18_131))
                (= shl5.i2.i.i_18_133
                   (bvshl i12.i.i_18_75 sh_prom.i.i.i_18_131))
                (= and.i.i3.i.i_18_135
                   (bvand shl.i1.i.i_18_132 #x00000000ffffffff))
                (= and6.i.i4.i.i_18_137
                   (bvand shl5.i2.i.i_18_133 #x00000000ffffffff))
                (= and.i.i607.i_18_143
                   (bvand shl5.i2.i.i_18_133 #x0000000080000000))
                (= or.i.i608.i_18_144
                   (bvor and.i.i607.i_18_143 shl.i1.i.i_18_132))
                (= conv.i9.i.i_18_145 ((_ extract 31 0) or.i.i608.i_18_144))
                (= and5.i.i.i_18_147
                   (bvand shl5.i2.i.i_18_133 #x000000007fffffff))
                (= or6.i.i.i_18_148 (bvor and5.i.i.i_18_147 shl.i1.i.i_18_132))
                (= conv7.i.i.i_18_149 ((_ extract 31 0) or6.i.i.i_18_148))
                (= dst_reg_18_103 i29.i.i.i_18_150)
                (= conv17.i.i.i_18_151 ((_ extract 31 0) shl.i1.i.i_18_132))
                (ite (bvugt i29.i.i.i_18_150 conv17.i.i.i_18_151)
                     (= cmp19.i.i.i_18_152 #b1)
                     (= cmp19.i.i.i_18_152 #b0))
                (ite (= cmp19.i.i.i_18_152 #b1)
                     (= cond24.i.i.i_18_153 i29.i.i.i_18_150)
                     (= cond24.i.i.i_18_153 conv17.i.i.i_18_151))
                (= dst_reg_18_104 i30.i.i.i_18_154)
                (= and.i.i.i.i603.i30_18_155
                   (bvor shl5.i2.i.i_18_133 shl.i1.i.i_18_132))
                (= conv29.i.i.i_18_156
                   ((_ extract 31 0) and.i.i.i.i603.i30_18_155))
                (ite (bvult i30.i.i.i_18_154 conv29.i.i.i_18_156)
                     (= cmp31.i.i.i_18_157 #b1)
                     (= cmp31.i.i.i_18_157 #b0))
                (ite (= cmp31.i.i.i_18_157 #b1)
                     (= cond36.i.i.i_18_158 i30.i.i.i_18_154)
                     (= cond36.i.i.i_18_158 conv29.i.i.i_18_156))
                (= conv.i.i983.i_18_159
                   ((_ zero_extend 32) cond24.i.i.i_18_153))
                (= conv1.i.i.i_18_160 ((_ zero_extend 32) cond36.i.i.i_18_158))
                (ite (bvsgt conv.i9.i.i_18_145 #xffffffff)
                     (= cmp.i.i.i990.i_18_162 #b1)
                     (= cmp.i.i.i990.i_18_162 #b0))
                (ite (bvsgt conv7.i.i.i_18_149 #xffffffff)
                     (= cmp.i1.i.i.i_18_164 #b1)
                     (= cmp.i1.i.i.i_18_164 #b0))
                (ite (= cmp.i.i.i990.i_18_162 #b1)
                     (= or.cond32_18_166 cmp.i1.i.i.i_18_164)
                     (= or.cond32_18_166 #b0))
                (=> a!2
                    (and (= #x00000001 src_reg_18_111)
                         (= src_reg_18_19 src_reg_18_112)
                         (= src_reg_18_20 src_reg_18_113)
                         (= src_reg_18_21 src_reg_18_114)
                         (= src_reg_18_22 src_reg_18_115)
                         (= src_reg_18_23 src_reg_18_116)
                         (= src_reg_18_24 src_reg_18_117)
                         (= src_reg_18_25 src_reg_18_118)
                         (= src_reg_18_26 src_reg_18_119)
                         (= src_reg_18_27 src_reg_18_120)
                         (= src_reg_18_28 src_reg_18_121)
                         (= src_reg_18_29 src_reg_18_122)
                         (= src_reg_18_30 src_reg_18_123)
                         (= src_reg_18_31 src_reg_18_124)
                         (= src_reg_18_32 src_reg_18_125)
                         (= src_reg_18_33 src_reg_18_126)
                         (= src_reg_18_34 src_reg_18_127)
                         (= src_reg_18_35 src_reg_18_128)
                         (= #x00000001 dst_reg_18_93)
                         (= dst_reg_18_1 dst_reg_18_94)
                         (= dst_reg_18_2 dst_reg_18_95)
                         (= dst_reg_18_3 dst_reg_18_96)
                         (= dst_reg_18_4 dst_reg_18_97)
                         (= dst_reg_18_5 dst_reg_18_98)
                         (= dst_reg_18_6 dst_reg_18_99)
                         (= dst_reg_18_7 dst_reg_18_100)
                         (= #x80000000 dst_reg_18_101)
                         (= #x7fffffff dst_reg_18_102)
                         (= #x00000000 dst_reg_18_103)
                         (= #xffffffff dst_reg_18_104)
                         (= dst_reg_18_12 dst_reg_18_105)
                         (= dst_reg_18_13 dst_reg_18_106)
                         (= dst_reg_18_14 dst_reg_18_107)
                         (= dst_reg_18_15 dst_reg_18_108)
                         (= dst_reg_18_16 dst_reg_18_109)
                         (= dst_reg_18_17 dst_reg_18_110)))
                (=> a!1
                    (and (= #x00000001 src_reg_18_111)
                         (= src_reg_18_19 src_reg_18_112)
                         (= src_reg_18_20 src_reg_18_113)
                         (= src_reg_18_21 src_reg_18_114)
                         (= src_reg_18_22 src_reg_18_115)
                         (= src_reg_18_23 src_reg_18_116)
                         (= src_reg_18_24 src_reg_18_117)
                         (= src_reg_18_25 src_reg_18_118)
                         (= src_reg_18_26 src_reg_18_119)
                         (= src_reg_18_27 src_reg_18_120)
                         (= src_reg_18_28 src_reg_18_121)
                         (= src_reg_18_29 src_reg_18_122)
                         (= src_reg_18_30 src_reg_18_123)
                         (= src_reg_18_31 src_reg_18_124)
                         (= src_reg_18_32 src_reg_18_125)
                         (= src_reg_18_33 src_reg_18_126)
                         (= src_reg_18_34 src_reg_18_127)
                         (= src_reg_18_35 src_reg_18_128)
                         (= #x00000001 dst_reg_18_93)
                         (= dst_reg_18_1 dst_reg_18_94)
                         (= dst_reg_18_2 dst_reg_18_95)
                         (= dst_reg_18_3 dst_reg_18_96)
                         (= dst_reg_18_4 dst_reg_18_97)
                         (= dst_reg_18_5 dst_reg_18_98)
                         (= dst_reg_18_6 dst_reg_18_99)
                         (= dst_reg_18_7 dst_reg_18_100)
                         (= #x80000000 dst_reg_18_101)
                         (= #x7fffffff dst_reg_18_102)
                         (= shl5.i.i596.i_18_91 dst_reg_18_103)
                         (= shl8.i.i.i_18_92 dst_reg_18_104)
                         (= dst_reg_18_12 dst_reg_18_105)
                         (= dst_reg_18_13 dst_reg_18_106)
                         (= dst_reg_18_14 dst_reg_18_107)
                         (= dst_reg_18_15 dst_reg_18_108)
                         (= dst_reg_18_16 dst_reg_18_109)
                         (= dst_reg_18_17 dst_reg_18_110)))))
      (a!8 (=> (and (= or.cond32_18_166 #b1) (or a!1 a!2))
               (and (= sext_18_168
                       (bvshl or.i.i608.i_18_144 #x0000000000000020))
                    (= conv6.i.i.i_18_170
                       (bvashr sext_18_168 #x0000000000000020))
                    (= sext33_18_172
                       (bvshl or6.i.i.i_18_148 #x0000000000000020))
                    (= conv8.i.i.i_18_174
                       (bvashr sext33_18_172 #x0000000000000020))))))
(let ((a!10 (and (=> a!3
                     (and (= src_reg_18_194 src_reg_18_234)
                          (= src_reg_18_195 src_reg_18_235)
                          (= src_reg_18_196 src_reg_18_236)
                          (= src_reg_18_197 src_reg_18_237)
                          (= src_reg_18_198 src_reg_18_238)
                          (= src_reg_18_199 src_reg_18_239)
                          (= src_reg_18_200 src_reg_18_240)
                          (= src_reg_18_201 src_reg_18_241)
                          (= src_reg_18_202 src_reg_18_242)
                          (= src_reg_18_203 src_reg_18_243)
                          (= src_reg_18_204 src_reg_18_244)
                          (= src_reg_18_205 src_reg_18_245)
                          (= src_reg_18_206 src_reg_18_246)
                          (= src_reg_18_207 src_reg_18_247)
                          (= src_reg_18_208 src_reg_18_248)
                          (= src_reg_18_209 src_reg_18_249)
                          (= src_reg_18_210 src_reg_18_250)
                          (= src_reg_18_211 src_reg_18_251)
                          (= dst_reg_18_176 dst_reg_18_216)
                          (= dst_reg_18_177 dst_reg_18_217)
                          (= dst_reg_18_178 dst_reg_18_218)
                          (= dst_reg_18_179 dst_reg_18_219)
                          (= dst_reg_18_180 dst_reg_18_220)
                          (= .sink.i.i995.i_18_214 dst_reg_18_221)
                          (= dst_reg_18_182 dst_reg_18_222)
                          (= dst_reg_18_183 dst_reg_18_223)
                          (= dst_reg_18_184 dst_reg_18_224)
                          (= dst_reg_18_185 dst_reg_18_225)
                          (= dst_reg_18_186 dst_reg_18_226)
                          (= dst_reg_18_187 dst_reg_18_227)
                          (= dst_reg_18_188 dst_reg_18_228)
                          (= dst_reg_18_189 dst_reg_18_229)
                          (= dst_reg_18_190 dst_reg_18_230)
                          (= dst_reg_18_191 dst_reg_18_231)
                          (= dst_reg_18_192 dst_reg_18_232)
                          (= dst_reg_18_193 dst_reg_18_233)))
                 (=> (= or.cond_18_57 #b0)
                     (and (= #x00000001 src_reg_18_234)
                          (= src_reg_18_19 src_reg_18_235)
                          (= src_reg_18_20 src_reg_18_236)
                          (= src_reg_18_21 src_reg_18_237)
                          (= src_reg_18_22 src_reg_18_238)
                          (= src_reg_18_23 src_reg_18_239)
                          (= src_reg_18_24 src_reg_18_240)
                          (= src_reg_18_25 src_reg_18_241)
                          (= src_reg_18_26 src_reg_18_242)
                          (= src_reg_18_27 src_reg_18_243)
                          (= src_reg_18_28 src_reg_18_244)
                          (= src_reg_18_29 src_reg_18_245)
                          (= src_reg_18_30 src_reg_18_246)
                          (= src_reg_18_31 src_reg_18_247)
                          (= src_reg_18_32 src_reg_18_248)
                          (= src_reg_18_33 src_reg_18_249)
                          (= src_reg_18_34 src_reg_18_250)
                          (= src_reg_18_35 src_reg_18_251)
                          (= #x00000001 dst_reg_18_216)
                          (= dst_reg_18_1 dst_reg_18_217)
                          (= #x0000000000000000 dst_reg_18_218)
                          (= #xffffffffffffffff dst_reg_18_219)
                          (= #x8000000000000000 dst_reg_18_220)
                          (= #x7fffffffffffffff dst_reg_18_221)
                          (= #x0000000000000000 dst_reg_18_222)
                          (= #xffffffffffffffff dst_reg_18_223)
                          (= #x80000000 dst_reg_18_224)
                          (= #x7fffffff dst_reg_18_225)
                          (= #x00000000 dst_reg_18_226)
                          (= #xffffffff dst_reg_18_227)
                          (= #x00000000 dst_reg_18_228)
                          (= #x00000000 dst_reg_18_229)
                          (= #x00000000 dst_reg_18_230)
                          (= dst_reg_18_15 dst_reg_18_231)
                          (= dst_reg_18_16 dst_reg_18_232)
                          (= #x01 dst_reg_18_233)))
                 (= dst_reg_18_216 dst_reg_18_252)
                 (= dst_reg_18_217 dst_reg_18_253)
                 (= dst_reg_18_218 dst_reg_18_254)
                 (= dst_reg_18_219 dst_reg_18_255)
                 (= dst_reg_18_220 dst_reg_18_256)
                 (= dst_reg_18_221 dst_reg_18_257)
                 (= dst_reg_18_222 dst_reg_18_258)
                 (= dst_reg_18_223 dst_reg_18_259)
                 (= dst_reg_18_224 dst_reg_18_260)
                 (= dst_reg_18_225 dst_reg_18_261)
                 (= dst_reg_18_226 dst_reg_18_262)
                 (= dst_reg_18_227 dst_reg_18_263)
                 (= dst_reg_18_228 dst_reg_18_264)
                 (= dst_reg_18_229 dst_reg_18_265)
                 (= dst_reg_18_230 dst_reg_18_266)
                 (= dst_reg_18_231 dst_reg_18_267)
                 (= dst_reg_18_232 dst_reg_18_268)
                 (= dst_reg_18_233 dst_reg_18_269)
                 (= src_reg_18_234 src_reg_18_270)
                 (= src_reg_18_235 src_reg_18_271)
                 (= src_reg_18_236 src_reg_18_272)
                 (= src_reg_18_237 src_reg_18_273)
                 (= src_reg_18_238 src_reg_18_274)
                 (= src_reg_18_239 src_reg_18_275)
                 (= src_reg_18_240 src_reg_18_276)
                 (= src_reg_18_241 src_reg_18_277)
                 (= src_reg_18_242 src_reg_18_278)
                 (= src_reg_18_243 src_reg_18_279)
                 (= src_reg_18_244 src_reg_18_280)
                 (= src_reg_18_245 src_reg_18_281)
                 (= src_reg_18_246 src_reg_18_282)
                 (= src_reg_18_247 src_reg_18_283)
                 (= src_reg_18_248 src_reg_18_284)
                 (= src_reg_18_249 src_reg_18_285)
                 (= src_reg_18_250 src_reg_18_286)
                 (= src_reg_18_251 src_reg_18_287))))
  (and (=> a!3 a!4)
       a!5
       (=> (or a!1 a!2) a!6)
       a!7
       a!8
       a!9
       (=> (or a!3 (= or.cond_18_57 #b0)) a!10)
       (= dst_reg_18_0 dst_reg_18_0)
       (= dst_reg_18_1 dst_reg_18_1)
       (= dst_reg_18_2 dst_reg_18_2)
       (= dst_reg_18_3 dst_reg_18_3)
       (= dst_reg_18_4 dst_reg_18_4)
       (= dst_reg_18_5 dst_reg_18_5)
       (= dst_reg_18_6 dst_reg_18_6)
       (= dst_reg_18_7 dst_reg_18_7)
       (= dst_reg_18_8 dst_reg_18_8)
       (= dst_reg_18_9 dst_reg_18_9)
       (= dst_reg_18_10 dst_reg_18_10)
       (= dst_reg_18_11 dst_reg_18_11)
       (= dst_reg_18_12 dst_reg_18_12)
       (= dst_reg_18_13 dst_reg_18_13)
       (= dst_reg_18_14 dst_reg_18_14)
       (= dst_reg_18_15 dst_reg_18_15)
       (= dst_reg_18_16 dst_reg_18_16)
       (= dst_reg_18_17 dst_reg_18_17)
       (= src_reg_18_18 src_reg_18_18)
       (= src_reg_18_19 src_reg_18_19)
       (= src_reg_18_20 src_reg_18_20)
       (= src_reg_18_21 src_reg_18_21)
       (= src_reg_18_22 src_reg_18_22)
       (= src_reg_18_23 src_reg_18_23)
       (= src_reg_18_24 src_reg_18_24)
       (= src_reg_18_25 src_reg_18_25)
       (= src_reg_18_26 src_reg_18_26)
       (= src_reg_18_27 src_reg_18_27)
       (= src_reg_18_28 src_reg_18_28)
       (= src_reg_18_29 src_reg_18_29)
       (= src_reg_18_30 src_reg_18_30)
       (= src_reg_18_31 src_reg_18_31)
       (= src_reg_18_32 src_reg_18_32)
       (= src_reg_18_33 src_reg_18_33)
       (= src_reg_18_34 src_reg_18_34)
       (= src_reg_18_35 src_reg_18_35)
       (= src_reg_18_25 src_reg1.sroa.42.0.copyload_18_38)
       (= src_reg_18_26 src_reg1.sroa.50.0.copyload_18_39)
       (= src_reg_18_27 src_reg1.sroa.54.0.copyload_18_40)
       (= src_reg_18_28 src_reg1.sroa.57.0.copyload_18_41)
       (= src_reg_18_29 src_reg1.sroa.65.0.copyload_18_42)
       (= src_reg_18_21 src_reg1.sroa.13.0.copyload_18_43)
       (= and6.i.i.i.i.i_18_45
          (bvand src_reg1.sroa.13.0.copyload_18_43 #x00000000ffffffff))
       (ite (= and6.i.i.i.i.i_18_45 #x0000000000000000)
            (= tobool.not.i.i.i_18_47 #b1)
            (= tobool.not.i.i.i_18_47 #b0))
       (ite (= src_reg1.sroa.50.0.copyload_18_39
               src_reg1.sroa.54.0.copyload_18_40)
            (= cmp6.i.i_18_48 #b1)
            (= cmp6.i.i_18_48 #b0))
       (ite (= tobool.not.i.i.i_18_47 #b1)
            (= or.cond31_18_50 cmp6.i.i_18_48)
            (= or.cond31_18_50 #b0))
       (ite (= src_reg1.sroa.57.0.copyload_18_41
               src_reg1.sroa.65.0.copyload_18_42)
            (= cmp9.i.i_18_51 #b1)
            (= cmp9.i.i_18_51 #b0))
       (ite (= or.cond31_18_50 #b1)
            (= spec.select_18_53 cmp9.i.i_18_51)
            (= spec.select_18_53 #b0))
       (ite (bvult src_reg1.sroa.42.0.copyload_18_38 #x0000000000000020)
            (= cmp30.i.i_18_55 #b1)
            (= cmp30.i.i_18_55 #b0))
       (ite (= spec.select_18_53 #b1)
            (= or.cond_18_57 cmp30.i.i_18_55)
            (= or.cond_18_57 #b0)))))))

;{"dst_reg":["dst_reg_18_0","dst_reg_18_1",[""],["dst_reg_18_2","dst_reg_18_3"],"dst_reg_18_4","dst_reg_18_5","dst_reg_18_6","dst_reg_18_7","dst_reg_18_8","dst_reg_18_9","dst_reg_18_10","dst_reg_18_11","dst_reg_18_12","dst_reg_18_13","","","dst_reg_18_14","dst_reg_18_15","dst_reg_18_16"],"src_reg":["src_reg_18_18","src_reg_18_19",[""],["src_reg_18_20","src_reg_18_21"],"src_reg_18_22","src_reg_18_23","src_reg_18_24","src_reg_18_25","src_reg_18_26","src_reg_18_27","src_reg_18_28","src_reg_18_29","src_reg_18_30","src_reg_18_31","","","src_reg_18_32","src_reg_18_33","src_reg_18_34"]}
;{"dst_reg":["dst_reg_18_252","dst_reg_18_253",[""],["dst_reg_18_254","dst_reg_18_255"],"dst_reg_18_256","dst_reg_18_257","dst_reg_18_258","dst_reg_18_259","dst_reg_18_260","dst_reg_18_261","dst_reg_18_262","dst_reg_18_263","dst_reg_18_264","dst_reg_18_265","","","dst_reg_18_266","dst_reg_18_267","dst_reg_18_268"],"src_reg":["src_reg_18_270","src_reg_18_271",[""],["src_reg_18_272","src_reg_18_273"],"src_reg_18_274","src_reg_18_275","src_reg_18_276","src_reg_18_277","src_reg_18_278","src_reg_18_279","src_reg_18_280","src_reg_18_281","src_reg_18_282","src_reg_18_283","","","src_reg_18_284","src_reg_18_285","src_reg_18_286"]}
